p edge 72 266
e 1 2
e 1 12
e 1 21
e 1 24
e 1 28
e 1 35
e 1 55
e 2 5
e 2 8
e 2 39
e 2 53
e 2 54
e 2 57
e 2 62
e 2 64
e 2 70
e 3 4
e 3 5
e 3 28
e 3 33
e 3 35
e 3 56
e 3 57
e 3 71
e 4 6
e 4 20
e 4 26
e 4 29
e 4 32
e 4 33
e 4 42
e 4 45
e 4 55
e 4 67
e 4 70
e 5 25
e 5 32
e 5 35
e 5 55
e 5 60
e 5 61
e 5 62
e 6 10
e 6 11
e 6 15
e 6 21
e 6 47
e 7 20
e 7 29
e 7 37
e 7 53
e 7 61
e 7 63
e 8 10
e 8 16
e 8 64
e 8 71
e 9 15
e 9 28
e 9 29
e 9 39
e 9 61
e 9 62
e 9 65
e 9 72
e 10 21
e 10 42
e 10 46
e 10 61
e 10 62
e 11 15
e 11 20
e 11 32
e 11 41
e 12 18
e 12 23
e 12 26
e 12 27
e 12 34
e 12 45
e 12 50
e 12 54
e 12 55
e 12 56
e 12 58
e 12 67
e 13 24
e 13 27
e 13 29
e 13 31
e 13 44
e 13 53
e 13 61
e 13 65
e 13 71
e 14 44
e 14 60
e 15 16
e 15 46
e 15 48
e 15 69
e 16 21
e 16 23
e 16 26
e 16 28
e 16 36
e 17 25
e 17 31
e 17 54
e 17 59
e 17 72
e 18 37
e 18 39
e 18 51
e 18 55
e 18 65
e 18 70
e 19 28
e 19 30
e 19 63
e 20 64
e 21 37
e 21 39
e 21 43
e 21 49
e 21 51
e 21 67
e 22 41
e 22 53
e 22 56
e 22 58
e 22 64
e 22 68
e 23 36
e 23 51
e 23 66
e 24 35
e 24 40
e 24 41
e 24 47
e 24 50
e 24 59
e 24 65
e 25 33
e 25 34
e 25 54
e 25 55
e 25 65
e 25 70
e 26 30
e 26 54
e 26 70
e 27 36
e 27 40
e 27 46
e 27 53
e 27 65
e 27 67
e 28 29
e 28 43
e 28 46
e 28 53
e 28 65
e 29 37
e 29 46
e 29 63
e 29 65
e 30 31
e 30 35
e 30 40
e 30 44
e 31 35
e 31 60
e 31 61
e 31 62
e 32 33
e 32 37
e 32 40
e 32 61
e 32 65
e 33 41
e 33 42
e 33 47
e 33 53
e 33 57
e 33 71
e 34 35
e 34 41
e 34 45
e 34 55
e 34 60
e 34 61
e 35 45
e 35 50
e 35 59
e 35 60
e 35 67
e 36 38
e 36 39
e 36 49
e 36 55
e 36 58
e 36 60
e 36 65
e 36 70
e 37 44
e 37 55
e 38 42
e 38 53
e 38 65
e 39 51
e 39 52
e 39 55
e 40 55
e 40 57
e 40 70
e 41 43
e 41 54
e 41 71
e 42 50
e 42 53
e 42 59
e 42 69
e 43 53
e 43 55
e 43 67
e 43 69
e 44 55
e 44 65
e 44 67
e 45 62
e 46 48
e 46 53
e 46 58
e 46 62
e 47 58
e 48 58
e 48 63
e 49 68
e 49 72
e 50 52
e 50 54
e 50 67
e 51 59
e 51 68
e 52 58
e 52 66
e 53 57
e 53 58
e 53 59
e 53 70
e 53 71
e 55 63
e 55 69
e 56 65
e 57 58
e 57 59
e 57 63
e 59 60
e 60 61
e 60 70
e 61 67
e 62 63
e 62 70
e 63 70
e 66 69
